20	5
0	9	2	4	7	14	5	1	8	3	6
1	1	12
2	1	15
3	1	19
4	2	21	19
5	2	21	20
6	0
7	0
8	1	13
9	1	21
10	1	11
11	1	18
12	2	9	21
13	2	10	15
14	2	11	17
15	1	21
16	1	21
17	1	21
18	1	21
19	1	21
20	1	21
21	0
0	0	0	0	0	0	0
1	9	3	2	2	2	5
2	7	1	3	5	1	4
3	8	5	5	5	4	4
4	7	4	5	5	5	3
5	9	3	4	5	2	2
6	9	1	3	3	4	1
7	7	4	5	4	1	3
8	2	1	3	3	5	4
9	9	1	5	1	3	5
10	4	3	1	1	3	3
11	5	2	2	2	3	3
12	9	2	2	5	4	5
13	3	3	5	1	3	5
14	6	2	1	5	3	5
15	10	2	2	5	3	4
16	8	1	2	4	2	4
17	2	1	2	3	5	5
18	4	5	5	5	1	4
19	3	3	2	1	5	1
20	1	3	5	2	2	2
21	0	0	0	0	0	0
5	5	5	5	5
